p cnf 180 1110
1 2 3 4 5 0
-1 -2 0
-1 -3 0
-1 -4 0
-1 -5 0
-2 -3 0
-2 -4 0
-2 -5 0
-3 -4 0
-3 -5 0
-4 -5 0
-1 31 0
-1 6 0
-2 32 0
-2 7 0
-3 33 0
-3 8 0
-4 34 0
-4 9 0
-5 35 0
-5 10 0
6 7 8 9 10 0
-6 -7 0
-6 -8 0
-6 -9 0
-6 -10 0
-7 -8 0
-7 -9 0
-7 -10 0
-8 -9 0
-8 -10 0
-9 -10 0
-6 36 1 0
-6 36 11 0
-6 1 11 0
-7 37 2 0
-7 37 12 0
-7 2 12 0
-8 38 3 0
-8 38 13 0
-8 3 13 0
-9 39 4 0
-9 39 14 0
-9 4 14 0
-10 40 5 0
-10 40 15 0
-10 5 15 0
-6 -36 -1 -11 0
-7 -37 -2 -12 0
-8 -38 -3 -13 0
-9 -39 -4 -14 0
-10 -40 -5 -15 0
11 12 13 14 15 0
-11 -12 0
-11 -13 0
-11 -14 0
-11 -15 0
-12 -13 0
-12 -14 0
-12 -15 0
-13 -14 0
-13 -15 0
-14 -15 0
-11 41 6 0
-11 41 16 0
-11 6 16 0
-12 42 7 0
-12 42 17 0
-12 7 17 0
-13 43 8 0
-13 43 18 0
-13 8 18 0
-14 44 9 0
-14 44 19 0
-14 9 19 0
-15 45 10 0
-15 45 20 0
-15 10 20 0
-11 -41 -6 -16 0
-12 -42 -7 -17 0
-13 -43 -8 -18 0
-14 -44 -9 -19 0
-15 -45 -10 -20 0
16 17 18 19 20 0
-16 -17 0
-16 -18 0
-16 -19 0
-16 -20 0
-17 -18 0
-17 -19 0
-17 -20 0
-18 -19 0
-18 -20 0
-19 -20 0
-16 46 11 0
-16 46 21 0
-16 11 21 0
-17 47 12 0
-17 47 22 0
-17 12 22 0
-18 48 13 0
-18 48 23 0
-18 13 23 0
-19 49 14 0
-19 49 24 0
-19 14 24 0
-20 50 15 0
-20 50 25 0
-20 15 25 0
-16 -46 -11 -21 0
-17 -47 -12 -22 0
-18 -48 -13 -23 0
-19 -49 -14 -24 0
-20 -50 -15 -25 0
21 22 23 24 25 0
-21 -22 0
-21 -23 0
-21 -24 0
-21 -25 0
-22 -23 0
-22 -24 0
-22 -25 0
-23 -24 0
-23 -25 0
-24 -25 0
-21 51 16 0
-21 51 26 0
-21 16 26 0
-22 52 17 0
-22 52 27 0
-22 17 27 0
-23 53 18 0
-23 53 28 0
-23 18 28 0
-24 54 19 0
-24 54 29 0
-24 19 29 0
-25 55 20 0
-25 55 30 0
-25 20 30 0
-21 -51 -16 -26 0
-22 -52 -17 -27 0
-23 -53 -18 -28 0
-24 -54 -19 -29 0
-25 -55 -20 -30 0
26 27 28 29 30 0
-26 -27 0
-26 -28 0
-26 -29 0
-26 -30 0
-27 -28 0
-27 -29 0
-27 -30 0
-28 -29 0
-28 -30 0
-29 -30 0
-26 56 0
-26 21 0
-27 57 0
-27 22 0
-28 58 0
-28 23 0
-29 59 0
-29 24 0
-30 60 0
-30 25 0
31 32 33 34 35 0
-31 -32 0
-31 -33 0
-31 -34 0
-31 -35 0
-32 -33 0
-32 -34 0
-32 -35 0
-33 -34 0
-33 -35 0
-34 -35 0
-31 61 1 0
-31 61 36 0
-31 1 36 0
-32 62 2 0
-32 62 37 0
-32 2 37 0
-33 63 3 0
-33 63 38 0
-33 3 38 0
-34 64 4 0
-34 64 39 0
-34 4 39 0
-35 65 5 0
-35 65 40 0
-35 5 40 0
-31 -61 -1 -36 0
-32 -62 -2 -37 0
-33 -63 -3 -38 0
-34 -64 -4 -39 0
-35 -65 -5 -40 0
36 0
-37 0
-38 0
-39 0
-40 0
66 6 41 31 0
-66 -6 0
-66 -41 0
-66 -31 0
-6 -41 0
-6 -31 0
-41 -31 0
42 0
-41 0
-43 0
-44 0
-45 0
72 12 47 37 0
-72 -12 0
-72 -47 0
-72 -37 0
-12 -47 0
-12 -37 0
-47 -37 0
46 47 48 49 50 0
-46 -47 0
-46 -48 0
-46 -49 0
-46 -50 0
-47 -48 0
-47 -49 0
-47 -50 0
-48 -49 0
-48 -50 0
-49 -50 0
-46 76 16 51 0
-46 76 16 41 0
-46 76 51 41 0
-46 16 51 41 0
-47 77 17 52 0
-47 77 17 42 0
-47 77 52 42 0
-47 17 52 42 0
-48 78 18 53 0
-48 78 18 43 0
-48 78 53 43 0
-48 18 53 43 0
-49 79 19 54 0
-49 79 19 44 0
-49 79 54 44 0
-49 19 54 44 0
-50 80 20 55 0
-50 80 20 45 0
-50 80 55 45 0
-50 20 55 45 0
-46 -76 -16 -51 0
-46 -76 -16 -41 0
-46 -76 -51 -41 0
-46 -16 -51 -41 0
-47 -77 -17 -52 0
-47 -77 -17 -42 0
-47 -77 -52 -42 0
-47 -17 -52 -42 0
-48 -78 -18 -53 0
-48 -78 -18 -43 0
-48 -78 -53 -43 0
-48 -18 -53 -43 0
-49 -79 -19 -54 0
-49 -79 -19 -44 0
-49 -79 -54 -44 0
-49 -19 -54 -44 0
-50 -80 -20 -55 0
-50 -80 -20 -45 0
-50 -80 -55 -45 0
-50 -20 -55 -45 0
51 52 53 54 55 0
-51 -52 0
-51 -53 0
-51 -54 0
-51 -55 0
-52 -53 0
-52 -54 0
-52 -55 0
-53 -54 0
-53 -55 0
-54 -55 0
-51 81 21 56 0
-51 81 21 46 0
-51 81 56 46 0
-51 21 56 46 0
-52 82 22 57 0
-52 82 22 47 0
-52 82 57 47 0
-52 22 57 47 0
-53 83 23 58 0
-53 83 23 48 0
-53 83 58 48 0
-53 23 58 48 0
-54 84 24 59 0
-54 84 24 49 0
-54 84 59 49 0
-54 24 59 49 0
-55 85 25 60 0
-55 85 25 50 0
-55 85 60 50 0
-55 25 60 50 0
-51 -81 -21 -56 0
-51 -81 -21 -46 0
-51 -81 -56 -46 0
-51 -21 -56 -46 0
-52 -82 -22 -57 0
-52 -82 -22 -47 0
-52 -82 -57 -47 0
-52 -22 -57 -47 0
-53 -83 -23 -58 0
-53 -83 -23 -48 0
-53 -83 -58 -48 0
-53 -23 -58 -48 0
-54 -84 -24 -59 0
-54 -84 -24 -49 0
-54 -84 -59 -49 0
-54 -24 -59 -49 0
-55 -85 -25 -60 0
-55 -85 -25 -50 0
-55 -85 -60 -50 0
-55 -25 -60 -50 0
56 57 58 59 60 0
-56 -57 0
-56 -58 0
-56 -59 0
-56 -60 0
-57 -58 0
-57 -59 0
-57 -60 0
-58 -59 0
-58 -60 0
-59 -60 0
-56 86 26 0
-56 86 51 0
-56 26 51 0
-57 87 27 0
-57 87 52 0
-57 27 52 0
-58 88 28 0
-58 88 53 0
-58 28 53 0
-59 89 29 0
-59 89 54 0
-59 29 54 0
-60 90 30 0
-60 90 55 0
-60 30 55 0
-56 -86 -26 -51 0
-57 -87 -27 -52 0
-58 -88 -28 -53 0
-59 -89 -29 -54 0
-60 -90 -30 -55 0
61 62 63 64 65 0
-61 -62 0
-61 -63 0
-61 -64 0
-61 -65 0
-62 -63 0
-62 -64 0
-62 -65 0
-63 -64 0
-63 -65 0
-64 -65 0
-61 91 31 0
-61 91 66 0
-61 31 66 0
-62 92 32 0
-62 92 67 0
-62 32 67 0
-63 93 33 0
-63 93 68 0
-63 33 68 0
-64 94 34 0
-64 94 69 0
-64 34 69 0
-65 95 35 0
-65 95 70 0
-65 35 70 0
-61 -91 -31 -66 0
-62 -92 -32 -67 0
-63 -93 -33 -68 0
-64 -94 -34 -69 0
-65 -95 -35 -70 0
66 67 68 69 70 0
-66 -67 0
-66 -68 0
-66 -69 0
-66 -70 0
-67 -68 0
-67 -69 0
-67 -70 0
-68 -69 0
-68 -70 0
-69 -70 0
-66 96 36 71 0
-66 96 36 61 0
-66 96 71 61 0
-66 36 71 61 0
-67 97 37 72 0
-67 97 37 62 0
-67 97 72 62 0
-67 37 72 62 0
-68 98 38 73 0
-68 98 38 63 0
-68 98 73 63 0
-68 38 73 63 0
-69 99 39 74 0
-69 99 39 64 0
-69 99 74 64 0
-69 39 74 64 0
-70 100 40 75 0
-70 100 40 65 0
-70 100 75 65 0
-70 40 75 65 0
-66 -96 -36 -71 0
-66 -96 -36 -61 0
-66 -96 -71 -61 0
-66 -36 -71 -61 0
-67 -97 -37 -72 0
-67 -97 -37 -62 0
-67 -97 -72 -62 0
-67 -37 -72 -62 0
-68 -98 -38 -73 0
-68 -98 -38 -63 0
-68 -98 -73 -63 0
-68 -38 -73 -63 0
-69 -99 -39 -74 0
-69 -99 -39 -64 0
-69 -99 -74 -64 0
-69 -39 -74 -64 0
-70 -100 -40 -75 0
-70 -100 -40 -65 0
-70 -100 -75 -65 0
-70 -40 -75 -65 0
71 72 73 74 75 0
-71 -72 0
-71 -73 0
-71 -74 0
-71 -75 0
-72 -73 0
-72 -74 0
-72 -75 0
-73 -74 0
-73 -75 0
-74 -75 0
-71 101 41 76 0
-71 101 41 66 0
-71 101 76 66 0
-71 41 76 66 0
-72 102 42 77 0
-72 102 42 67 0
-72 102 77 67 0
-72 42 77 67 0
-73 103 43 78 0
-73 103 43 68 0
-73 103 78 68 0
-73 43 78 68 0
-74 104 44 79 0
-74 104 44 69 0
-74 104 79 69 0
-74 44 79 69 0
-75 105 45 80 0
-75 105 45 70 0
-75 105 80 70 0
-75 45 80 70 0
-71 -101 -41 -76 0
-71 -101 -41 -66 0
-71 -101 -76 -66 0
-71 -41 -76 -66 0
-72 -102 -42 -77 0
-72 -102 -42 -67 0
-72 -102 -77 -67 0
-72 -42 -77 -67 0
-73 -103 -43 -78 0
-73 -103 -43 -68 0
-73 -103 -78 -68 0
-73 -43 -78 -68 0
-74 -104 -44 -79 0
-74 -104 -44 -69 0
-74 -104 -79 -69 0
-74 -44 -79 -69 0
-75 -105 -45 -80 0
-75 -105 -45 -70 0
-75 -105 -80 -70 0
-75 -45 -80 -70 0
76 0
-77 0
-78 0
-79 0
-80 0
106 46 81 71 0
-106 -46 0
-106 -81 0
-106 -71 0
-46 -81 0
-46 -71 0
-81 -71 0
81 82 83 84 85 0
-81 -82 0
-81 -83 0
-81 -84 0
-81 -85 0
-82 -83 0
-82 -84 0
-82 -85 0
-83 -84 0
-83 -85 0
-84 -85 0
-81 111 51 86 0
-81 111 51 76 0
-81 111 86 76 0
-81 51 86 76 0
-82 112 52 87 0
-82 112 52 77 0
-82 112 87 77 0
-82 52 87 77 0
-83 113 53 88 0
-83 113 53 78 0
-83 113 88 78 0
-83 53 88 78 0
-84 114 54 89 0
-84 114 54 79 0
-84 114 89 79 0
-84 54 89 79 0
-85 115 55 90 0
-85 115 55 80 0
-85 115 90 80 0
-85 55 90 80 0
-81 -111 -51 -86 0
-81 -111 -51 -76 0
-81 -111 -86 -76 0
-81 -51 -86 -76 0
-82 -112 -52 -87 0
-82 -112 -52 -77 0
-82 -112 -87 -77 0
-82 -52 -87 -77 0
-83 -113 -53 -88 0
-83 -113 -53 -78 0
-83 -113 -88 -78 0
-83 -53 -88 -78 0
-84 -114 -54 -89 0
-84 -114 -54 -79 0
-84 -114 -89 -79 0
-84 -54 -89 -79 0
-85 -115 -55 -90 0
-85 -115 -55 -80 0
-85 -115 -90 -80 0
-85 -55 -90 -80 0
86 87 88 89 90 0
-86 -87 0
-86 -88 0
-86 -89 0
-86 -90 0
-87 -88 0
-87 -89 0
-87 -90 0
-88 -89 0
-88 -90 0
-89 -90 0
-86 116 56 0
-86 116 81 0
-86 56 81 0
-87 117 57 0
-87 117 82 0
-87 57 82 0
-88 118 58 0
-88 118 83 0
-88 58 83 0
-89 119 59 0
-89 119 84 0
-89 59 84 0
-90 120 60 0
-90 120 85 0
-90 60 85 0
-86 -116 -56 -81 0
-87 -117 -57 -82 0
-88 -118 -58 -83 0
-89 -119 -59 -84 0
-90 -120 -60 -85 0
94 0
-91 0
-92 0
-93 0
-95 0
124 64 99 0
-124 -64 0
-124 -99 0
-64 -99 0
96 97 98 99 100 0
-96 -97 0
-96 -98 0
-96 -99 0
-96 -100 0
-97 -98 0
-97 -99 0
-97 -100 0
-98 -99 0
-98 -100 0
-99 -100 0
-96 126 66 101 0
-96 126 66 91 0
-96 126 101 91 0
-96 66 101 91 0
-97 127 67 102 0
-97 127 67 92 0
-97 127 102 92 0
-97 67 102 92 0
-98 128 68 103 0
-98 128 68 93 0
-98 128 103 93 0
-98 68 103 93 0
-99 129 69 104 0
-99 129 69 94 0
-99 129 104 94 0
-99 69 104 94 0
-100 130 70 105 0
-100 130 70 95 0
-100 130 105 95 0
-100 70 105 95 0
-96 -126 -66 -101 0
-96 -126 -66 -91 0
-96 -126 -101 -91 0
-96 -66 -101 -91 0
-97 -127 -67 -102 0
-97 -127 -67 -92 0
-97 -127 -102 -92 0
-97 -67 -102 -92 0
-98 -128 -68 -103 0
-98 -128 -68 -93 0
-98 -128 -103 -93 0
-98 -68 -103 -93 0
-99 -129 -69 -104 0
-99 -129 -69 -94 0
-99 -129 -104 -94 0
-99 -69 -104 -94 0
-100 -130 -70 -105 0
-100 -130 -70 -95 0
-100 -130 -105 -95 0
-100 -70 -105 -95 0
101 102 103 104 105 0
-101 -102 0
-101 -103 0
-101 -104 0
-101 -105 0
-102 -103 0
-102 -104 0
-102 -105 0
-103 -104 0
-103 -105 0
-104 -105 0
-101 131 71 106 0
-101 131 71 96 0
-101 131 106 96 0
-101 71 106 96 0
-102 132 72 107 0
-102 132 72 97 0
-102 132 107 97 0
-102 72 107 97 0
-103 133 73 108 0
-103 133 73 98 0
-103 133 108 98 0
-103 73 108 98 0
-104 134 74 109 0
-104 134 74 99 0
-104 134 109 99 0
-104 74 109 99 0
-105 135 75 110 0
-105 135 75 100 0
-105 135 110 100 0
-105 75 110 100 0
-101 -131 -71 -106 0
-101 -131 -71 -96 0
-101 -131 -106 -96 0
-101 -71 -106 -96 0
-102 -132 -72 -107 0
-102 -132 -72 -97 0
-102 -132 -107 -97 0
-102 -72 -107 -97 0
-103 -133 -73 -108 0
-103 -133 -73 -98 0
-103 -133 -108 -98 0
-103 -73 -108 -98 0
-104 -134 -74 -109 0
-104 -134 -74 -99 0
-104 -134 -109 -99 0
-104 -74 -109 -99 0
-105 -135 -75 -110 0
-105 -135 -75 -100 0
-105 -135 -110 -100 0
-105 -75 -110 -100 0
106 107 108 109 110 0
-106 -107 0
-106 -108 0
-106 -109 0
-106 -110 0
-107 -108 0
-107 -109 0
-107 -110 0
-108 -109 0
-108 -110 0
-109 -110 0
-106 136 76 111 0
-106 136 76 101 0
-106 136 111 101 0
-106 76 111 101 0
-107 137 77 112 0
-107 137 77 102 0
-107 137 112 102 0
-107 77 112 102 0
-108 138 78 113 0
-108 138 78 103 0
-108 138 113 103 0
-108 78 113 103 0
-109 139 79 114 0
-109 139 79 104 0
-109 139 114 104 0
-109 79 114 104 0
-110 140 80 115 0
-110 140 80 105 0
-110 140 115 105 0
-110 80 115 105 0
-106 -136 -76 -111 0
-106 -136 -76 -101 0
-106 -136 -111 -101 0
-106 -76 -111 -101 0
-107 -137 -77 -112 0
-107 -137 -77 -102 0
-107 -137 -112 -102 0
-107 -77 -112 -102 0
-108 -138 -78 -113 0
-108 -138 -78 -103 0
-108 -138 -113 -103 0
-108 -78 -113 -103 0
-109 -139 -79 -114 0
-109 -139 -79 -104 0
-109 -139 -114 -104 0
-109 -79 -114 -104 0
-110 -140 -80 -115 0
-110 -140 -80 -105 0
-110 -140 -115 -105 0
-110 -80 -115 -105 0
111 112 113 114 115 0
-111 -112 0
-111 -113 0
-111 -114 0
-111 -115 0
-112 -113 0
-112 -114 0
-112 -115 0
-113 -114 0
-113 -115 0
-114 -115 0
-111 141 81 116 0
-111 141 81 106 0
-111 141 116 106 0
-111 81 116 106 0
-112 142 82 117 0
-112 142 82 107 0
-112 142 117 107 0
-112 82 117 107 0
-113 143 83 118 0
-113 143 83 108 0
-113 143 118 108 0
-113 83 118 108 0
-114 144 84 119 0
-114 144 84 109 0
-114 144 119 109 0
-114 84 119 109 0
-115 145 85 120 0
-115 145 85 110 0
-115 145 120 110 0
-115 85 120 110 0
-111 -141 -81 -116 0
-111 -141 -81 -106 0
-111 -141 -116 -106 0
-111 -81 -116 -106 0
-112 -142 -82 -117 0
-112 -142 -82 -107 0
-112 -142 -117 -107 0
-112 -82 -117 -107 0
-113 -143 -83 -118 0
-113 -143 -83 -108 0
-113 -143 -118 -108 0
-113 -83 -118 -108 0
-114 -144 -84 -119 0
-114 -144 -84 -109 0
-114 -144 -119 -109 0
-114 -84 -119 -109 0
-115 -145 -85 -120 0
-115 -145 -85 -110 0
-115 -145 -120 -110 0
-115 -85 -120 -110 0
116 117 118 119 120 0
-116 -117 0
-116 -118 0
-116 -119 0
-116 -120 0
-117 -118 0
-117 -119 0
-117 -120 0
-118 -119 0
-118 -120 0
-119 -120 0
-116 146 86 0
-116 146 111 0
-116 86 111 0
-117 147 87 0
-117 147 112 0
-117 87 112 0
-118 148 88 0
-118 148 113 0
-118 88 113 0
-119 149 89 0
-119 149 114 0
-119 89 114 0
-120 150 90 0
-120 150 115 0
-120 90 115 0
-116 -146 -86 -111 0
-117 -147 -87 -112 0
-118 -148 -88 -113 0
-119 -149 -89 -114 0
-120 -150 -90 -115 0
125 0
-121 0
-122 0
-123 0
-124 0
155 95 130 0
-155 -95 0
-155 -130 0
-95 -130 0
126 127 128 129 130 0
-126 -127 0
-126 -128 0
-126 -129 0
-126 -130 0
-127 -128 0
-127 -129 0
-127 -130 0
-128 -129 0
-128 -130 0
-129 -130 0
-126 156 96 131 0
-126 156 96 121 0
-126 156 131 121 0
-126 96 131 121 0
-127 157 97 132 0
-127 157 97 122 0
-127 157 132 122 0
-127 97 132 122 0
-128 158 98 133 0
-128 158 98 123 0
-128 158 133 123 0
-128 98 133 123 0
-129 159 99 134 0
-129 159 99 124 0
-129 159 134 124 0
-129 99 134 124 0
-130 160 100 135 0
-130 160 100 125 0
-130 160 135 125 0
-130 100 135 125 0
-126 -156 -96 -131 0
-126 -156 -96 -121 0
-126 -156 -131 -121 0
-126 -96 -131 -121 0
-127 -157 -97 -132 0
-127 -157 -97 -122 0
-127 -157 -132 -122 0
-127 -97 -132 -122 0
-128 -158 -98 -133 0
-128 -158 -98 -123 0
-128 -158 -133 -123 0
-128 -98 -133 -123 0
-129 -159 -99 -134 0
-129 -159 -99 -124 0
-129 -159 -134 -124 0
-129 -99 -134 -124 0
-130 -160 -100 -135 0
-130 -160 -100 -125 0
-130 -160 -135 -125 0
-130 -100 -135 -125 0
133 0
-131 0
-132 0
-134 0
-135 0
163 103 138 128 0
-163 -103 0
-163 -138 0
-163 -128 0
-103 -138 0
-103 -128 0
-138 -128 0
136 137 138 139 140 0
-136 -137 0
-136 -138 0
-136 -139 0
-136 -140 0
-137 -138 0
-137 -139 0
-137 -140 0
-138 -139 0
-138 -140 0
-139 -140 0
-136 166 106 141 0
-136 166 106 131 0
-136 166 141 131 0
-136 106 141 131 0
-137 167 107 142 0
-137 167 107 132 0
-137 167 142 132 0
-137 107 142 132 0
-138 168 108 143 0
-138 168 108 133 0
-138 168 143 133 0
-138 108 143 133 0
-139 169 109 144 0
-139 169 109 134 0
-139 169 144 134 0
-139 109 144 134 0
-140 170 110 145 0
-140 170 110 135 0
-140 170 145 135 0
-140 110 145 135 0
-136 -166 -106 -141 0
-136 -166 -106 -131 0
-136 -166 -141 -131 0
-136 -106 -141 -131 0
-137 -167 -107 -142 0
-137 -167 -107 -132 0
-137 -167 -142 -132 0
-137 -107 -142 -132 0
-138 -168 -108 -143 0
-138 -168 -108 -133 0
-138 -168 -143 -133 0
-138 -108 -143 -133 0
-139 -169 -109 -144 0
-139 -169 -109 -134 0
-139 -169 -144 -134 0
-139 -109 -144 -134 0
-140 -170 -110 -145 0
-140 -170 -110 -135 0
-140 -170 -145 -135 0
-140 -110 -145 -135 0
142 0
-141 0
-143 0
-144 0
-145 0
172 112 147 137 0
-172 -112 0
-172 -147 0
-172 -137 0
-112 -147 0
-112 -137 0
-147 -137 0
146 147 148 149 150 0
-146 -147 0
-146 -148 0
-146 -149 0
-146 -150 0
-147 -148 0
-147 -149 0
-147 -150 0
-148 -149 0
-148 -150 0
-149 -150 0
-146 176 116 0
-146 176 141 0
-146 116 141 0
-147 177 117 0
-147 177 142 0
-147 117 142 0
-148 178 118 0
-148 178 143 0
-148 118 143 0
-149 179 119 0
-149 179 144 0
-149 119 144 0
-150 180 120 0
-150 180 145 0
-150 120 145 0
-146 -176 -116 -141 0
-147 -177 -117 -142 0
-148 -178 -118 -143 0
-149 -179 -119 -144 0
-150 -180 -120 -145 0
153 0
-151 0
-152 0
-154 0
-155 0
123 158 0
-123 -158 0
156 157 158 159 160 0
-156 -157 0
-156 -158 0
-156 -159 0
-156 -160 0
-157 -158 0
-157 -159 0
-157 -160 0
-158 -159 0
-158 -160 0
-159 -160 0
-156 151 126 0
-156 126 161 0
-156 151 161 0
-157 152 127 0
-157 127 162 0
-157 152 162 0
-158 153 128 0
-158 128 163 0
-158 153 163 0
-159 154 129 0
-159 129 164 0
-159 154 164 0
-160 155 130 0
-160 130 165 0
-160 155 165 0
-156 -126 -151 -161 0
-157 -127 -152 -162 0
-158 -128 -153 -163 0
-159 -129 -154 -164 0
-160 -130 -155 -165 0
161 162 163 164 165 0
-161 -162 0
-161 -163 0
-161 -164 0
-161 -165 0
-162 -163 0
-162 -164 0
-162 -165 0
-163 -164 0
-163 -165 0
-164 -165 0
-161 156 131 0
-161 131 166 0
-161 156 166 0
-162 157 132 0
-162 132 167 0
-162 157 167 0
-163 158 133 0
-163 133 168 0
-163 158 168 0
-164 159 134 0
-164 134 169 0
-164 159 169 0
-165 160 135 0
-165 135 170 0
-165 160 170 0
-161 -131 -156 -166 0
-162 -132 -157 -167 0
-163 -133 -158 -168 0
-164 -134 -159 -169 0
-165 -135 -160 -170 0
170 0
-166 0
-167 0
-168 0
-169 0
165 140 175 0
-165 -140 0
-165 -175 0
-140 -175 0
174 0
-171 0
-172 0
-173 0
-175 0
169 144 179 0
-169 -144 0
-169 -179 0
-144 -179 0
176 177 178 179 180 0
-176 -177 0
-176 -178 0
-176 -179 0
-176 -180 0
-177 -178 0
-177 -179 0
-177 -180 0
-178 -179 0
-178 -180 0
-179 -180 0
-176 146 0
-176 171 0
-177 147 0
-177 172 0
-178 148 0
-178 173 0
-179 149 0
-179 174 0
-180 150 0
-180 175 0
11 71 101 161 0
62 67 72 82 87 0
97 102 107 112 117 0
17 47 107 137 0
8 68 98 128 158 0
129 139 149 0
9 69 99 129 159 0
14 74 104 164 0
19 49 109 139 0
10 70 100 130 160 0
15 75 105 165 0